\ LP format - for model browsing. Use MPS format to capture full model detail.
Minimize
  0 chi[0](0,0) + 0 chi[0](0,1) + 0 chi[1](0,0) + 0 chi[1](0,1)
   + 2.2 y[0](0,0) + 1.5 y[1](0,0) + 2.2 y[0](0,1) + 1.5 y[1](0,1)
   + 0 chi_local_copy[0](0,) + 0 chi_local_copy[1](0,) - 2.5 x[0](0,)
   - 2 x[1](0,)
Subject To
 R0: - chi[0](0,) + 2 y[0](0,0) + 3 y[1](0,0) >= -2.8
 R1: - chi[1](0,) + 4 y[0](0,0) + y[1](0,0) >= -1.2
 R2: - chi[0](0,) + 2 y[0](0,1) + 3 y[1](0,1) >= -2
 R3: - chi[1](0,) + 4 y[0](0,1) + y[1](0,1) >= -3
 R4: 4 x[0](0,) + 5 x[1](0,) <= 15
 R5: x[0](0,) + x[1](0,) >= 1.5
 R6: chi[0](0,) - x[0](0,) - 2 x[1](0,) - C6(0,) = 0
 R7: chi[1](0,) - 2 x[0](0,) - x[1](0,) - C7(0,) = 0
Bounds
 1.5 <= chi[0](0,0) <= 6
 1.5 <= chi[0](0,1) <= 6
 1.5 <= chi[1](0,0) <= 7.5
 1.5 <= chi[1](0,1) <= 7.5
 1.5 <= chi[0](0,) <= 6
 1.5 <= chi[1](0,) <= 7.5
 1.5 <= chi_local_copy[0](0,) <= 6
 1.5 <= chi_local_copy[1](0,) <= 7.5
 x[0](0,) free
 x[1](0,) free
 C6(0,) <= 0.1
 C7(0,) <= 0.1
Generals
 y[0](0,0) y[1](0,0) y[0](0,1) y[1](0,1)
End
